c ---- [ banner ] ------------------------------------------------------------
c
c Kissat SAT Solver
c 
c Copyright (c) 2021-2024 Armin Biere University of Freiburg
c Copyright (c) 2019-2021 Armin Biere Johannes Kepler University Linz
c 
c Version 4.0.1 43f02cf3e992cb44653b35e5cb26f93281552ae0
c gcc (Ubuntu 13.2.0-23ubuntu4) 13.2.0 -W -Wall -O3 -DNDEBUG
c Thu Sep 12 12:27:46 CEST 2024 Linux abryzen9 6.8.0-41-generic x86_64
c
c ---- [ parsing ] -----------------------------------------------------------
c
c opened and reading DIMACS file:
c
c   /data/artifact/AMulet2.0_artifact/exp4/cnf_dc2_64/64_64_U1_WT_RC_Multgen_dc2.cnf
c
c parsed 'p cnf 30642 133940' header
c closing input after reading 2680830 bytes (3 MB)
c finished parsing after 0.02 seconds
c
c ---- [ options ] -----------------------------------------------------------
c
c --stable=0                       (different from default '1')
c
c ---- [ solving ] -----------------------------------------------------------
c
c  seconds switched rate     size/glue tier1  binary           remaining
c         MB reductions conflicts size  tier2     irredundant
c          level restarts redundant glue  trail           variables
c
c *  0.02 10 0 0 0  0 0   0   0 0.0 0 0 0 0 0% 12452 121486 30639 100%
c (  0.04 13 0 0 0  0 0   0   0 0.0 0 0 0 0 0% 12452 121486 30639 100%
c .  0.04 13 0 0 0  0 0   0   0 0.0 0 0 0 0 0% 12448 121486 30639 100%
c c  0.10 18 0 0 0  0 0   0   0 0.0 0 0 0 0 0% 19389 107801 27167 89%
c d  0.10 18 0 0 0  0 0   0   0 0.0 0 0 0 0 0% 12445 107801 27167 89%
c =  0.14 18 0 0 0  0 0   0   0 0.0 0 0 0 0 0% 12907 107801 26871 88%
c d  0.14 18 0 0 0  0 0   0   0 0.0 0 0 0 0 0% 12315 107801 26871 88%
c f  0.22 19 0 0 0  0 0   0   0 0.0 0 0 0 0 0% 17321 99917 29659 97%
c e  0.34 28 0 0 0  0 0   0   0 0.0 0 0 0 0 0% 11093 108076 20614 67%
c )  0.34 28 0 0 0  0 0   0   0 0.0 0 0 0 0 0% 11093 108076 20614 67%
c {  0.35 28 0 0 0  0 0   0   0 0.0 0 0 2 6 0% 11093 108076 20614 67%
c -  0.60 28 183 0 1 327 53 1000 737 6.3 45 7 4 15 26% 11154 108070 20614 67%
c -  0.77 28 202 0 2 440 39 2000 1379 5.6 42 7 3 12 25% 11195 108066 20614 67%
c c  0.89 23 241 0 2 522 41 2503 1804 5.1 40 8 3 12 25% 11315 107742 20570 67%
c d  0.90 23 241 0 2 522 41 2503 1801 5.1 40 8 3 12 25% 11227 107742 20570 67%
c u  0.91 23 241 0 2 522 41 2503 1526 5.1 40 8 3 12 25% 11230 107742 20570 67%
c v  0.93 23 241 0 2 522 41 2503 1250 5.1 40 8 3 12 25% 11230 107742 20570 67%
c w  0.94 28 241 0 2 522 41 2503 1248 5.1 40 8 3 12 25% 11230 107742 20570 67%
c x  0.96 28 241 0 2 522 41 2503 1248 5.1 40 8 3 12 25% 11382 107428 20570 67%
c =  1.02 28 241 0 2 522 41 2503 1248 5.1 40 8 3 12 25% 11992 107428 20265 66%
c
c  seconds   switched   rate       size/glue tier1     binary           remaining
c         MB  reductions conflicts       size  tier2       irredundant
c           level restarts    redundant    glue    trail           variables
c
c d  1.03 28 241 0 2 522 41 2503 1243 5.1 40 8 3 12 25% 11379 107428 20265 66%
c t  1.04 28 241 0 2 522 41 2503 1243 5.1 40 8 3 12 25% 11371 107428 20265 66%
c f  1.06 28 241 0 2 522 41 2503 1243 5.1 40 8 3 12 25% 11982 106217 20855 68%
c c  1.11 28 241 0 2 522 41 2503 1243 5.1 40 8 3 12 25% 11986 106209 20854 68%
c d  1.11 28 241 0 2 522 41 2503 1243 5.1 40 8 3 12 25% 11984 106209 20854 68%
c u  1.12 28 241 0 2 522 41 2503 1205 5.1 40 8 3 12 25% 11987 106209 20854 68%
c v  1.14 28 241 0 2 522 41 2503 1160 5.1 40 8 3 12 25% 11988 106209 20854 68%
c w  1.16 30 241 0 2 522 41 2503 1158 5.1 40 8 3 12 25% 11988 106209 20854 68%
c x  1.18 30 241 0 2 522 41 2503 1158 5.1 40 8 3 12 25% 11989 105581 20854 68%
c =  1.24 30 241 0 2 522 41 2503 1158 5.1 40 8 3 12 25% 12209 105581 20744 68%
c d  1.25 30 241 0 2 522 41 2503 1156 5.1 40 8 3 12 25% 11987 105581 20744 68%
c f  1.28 30 241 0 2 522 41 2503 1156 5.1 40 8 3 12 25% 12025 105524 20763 68%
c -  1.46 30 253 0 3 628 39 3415 1642 4.7 38 8 3 13 27% 12042 105524 20763 68%
c -  1.54 30 283 0 4 663 30 5149 2698 4.1 29 7 2 10 23% 12121 105500 20763 68%
c -  1.84 30 310 0 5 860 32 7149 3675 4.3 29 7 2 10 23% 12236 105484 20763 68%
c d  1.95 30 313 0 5 907 32 7708 4150 4.4 31 7 2 10 23% 12195 105484 20731 68%
c u  1.97 30 313 0 5 907 32 7708 3626 4.4 31 7 2 10 23% 12211 105484 20731 68%
c v  2.00 30 313 0 5 907 32 7708 3280 4.4 31 7 2 10 23% 12211 105484 20731 68%
c w  2.02 30 313 0 5 907 32 7708 3280 4.4 31 7 2 10 23% 12211 105484 20731 68%
c x  2.03 30 313 0 5 907 32 7708 3280 4.4 31 7 2 10 23% 12212 105361 20731 68%
c
c  seconds   switched   rate       size/glue tier1     binary           remaining
c         MB  reductions conflicts       size  tier2       irredundant
c           level restarts    redundant    glue    trail           variables
c
c =  2.12 30 313 0 5 907 32 7708 3280 4.4 31 7 2 10 23% 13008 105361 20333 66%
c d  2.12 30 313 0 5 907 32 7708 3272 4.4 31 7 2 10 23% 12123 105361 20332 66%
c t  2.13 30 313 0 5 907 32 7708 3272 4.4 31 7 2 10 23% 12109 105361 20332 66%
c f  2.16 30 313 0 5 907 32 7708 3272 4.4 31 7 2 10 23% 12873 104194 20719 68%
c c  2.21 30 313 0 5 907 32 7708 3272 4.4 31 7 2 10 23% 12875 104186 20718 68%
c d  2.22 30 313 0 5 907 32 7708 3272 4.4 31 7 2 10 23% 12873 104186 20718 68%
c u  2.23 30 313 0 5 907 32 7708 3192 4.4 31 7 2 10 23% 12876 104186 20718 68%
c v  2.25 30 313 0 5 907 32 7708 2939 4.4 31 7 2 10 23% 12877 104186 20718 68%
c w  2.28 30 313 0 5 907 32 7708 2938 4.4 31 7 2 10 23% 12877 104186 20718 68%
c x  2.29 30 313 0 5 907 32 7708 2938 4.4 31 7 2 10 23% 12877 104176 20718 68%
c =  2.37 30 313 0 5 907 32 7708 2938 4.4 31 7 2 10 23% 13633 104176 20340 66%
c d  2.37 30 313 0 5 907 32 7708 2924 4.4 31 7 2 10 23% 12779 104176 20340 66%
c t  2.38 30 313 0 5 907 32 7708 2924 4.4 31 7 2 10 23% 12740 104176 20340 66%
c f  2.41 30 313 0 5 907 32 7708 2924 4.4 31 7 2 10 23% 14337 101769 21141 69%
c -  2.58 30 309 0 6 1025 31 9386 3712 4.2 28 7 2 10 23% 14412 101759 21141 69%
c o  2.66 30 313 0 6 1060 31 10028 4288 4.2 28 7 2 10 23% 14438 101754 21141 69%
c -  2.90 30 337 0 7 1174 30 11836 5107 4.1 27 7 2 10 23% 14540 101749 21141 69%
c s  3.07 30 341 0 7 1259 30 12513 5669 4.3 29 7 2 10 23% 14582 95122 21141 69%
c e  3.15 30 341 0 7 1259 30 12513 5669 4.3 29 7 2 10 23% 13461 95996 20476 67%
c s  3.16 30 341 0 7 1259 30 12513 5669 4.3 29 7 2 10 23% 13470 95383 20476 67%
c
c  seconds   switched    rate        size/glue tier1     binary          remaining
c         MB  reductions   conflicts       size  tier2       irredundant
c           level  restarts     redundant    glue    trail          variables
c
c ^  3.16 30 341 0 7 1259 30 12513 5669 4.3 29 7 2 10 23% 13470 95383 20476 67%
c -  3.42 30 320 0 8 1372 29 14481 6100 4.1 28 7 2 9 24% 13538 95382 20476 67%
c d  3.70 30 323 0 8 1534 30 15791 7219 4.3 29 7 2 9 25% 13193 95378 20249 66%
c u  3.73 30 323 0 8 1534 30 15791 6317 4.3 29 7 2 9 25% 13215 95378 20249 66%
c v  3.77 30 323 0 8 1534 30 15791 5443 4.3 29 7 2 9 25% 13217 95378 20249 66%
c w  3.84 30 323 0 8 1534 30 15791 5439 4.3 29 7 2 9 25% 13217 95378 20249 66%
c =  3.96 30 323 0 8 1534 30 15791 5439 4.3 29 7 2 9 25% 13987 95372 19864 65%
c d  3.97 30 323 0 8 1534 30 15791 5409 4.3 29 7 2 9 25% 13048 95372 19861 65%
c t  3.98 30 323 0 8 1534 30 15791 5409 4.3 29 7 2 9 25% 12999 95372 19861 65%
c f  4.03 30 323 0 8 1534 30 15791 5409 4.3 29 7 2 9 25% 13218 94910 19978 65%
c u  4.06 30 323 0 8 1534 30 15791 5194 4.3 29 7 2 9 25% 13220 94910 19978 65%
c v  4.08 30 323 0 8 1534 30 15791 5057 4.3 29 7 2 9 25% 13221 94910 19978 65%
c w  4.13 30 323 0 8 1534 30 15791 5053 4.3 29 7 2 9 25% 13221 94910 19978 65%
c x  4.16 30 323 0 8 1534 30 15791 5053 4.3 29 7 2 9 25% 13274 94459 19978 65%
c =  4.30 30 323 0 8 1534 30 15791 5053 4.3 29 7 2 9 25% 13532 94459 19849 65%
c d  4.30 30 323 0 8 1534 30 15791 5026 4.3 29 7 2 9 25% 13184 94459 19849 65%
c t  4.32 30 323 0 8 1534 30 15791 5026 4.3 29 7 2 9 25% 13176 94459 19849 65%
c f  4.33 30 323 0 8 1534 30 15791 5026 4.3 29 7 2 9 25% 13180 94447 19853 65%
c -  4.53 30 330 0 9 1639 30 17311 5640 4.2 28 7 2 9 25% 13253 94423 19853 65%
c o  5.02 30 328 0 9 1939 32 20049 8003 4.3 30 7 2 9 24% 13323 94419 19853 65%
c
c  seconds   switched     rate        size/glue tier1    binary          remaining
c         MB   reductions   conflicts       size  tier2      irredundant
c           level   restarts     redundant    glue   trail          variables
c
c -  5.08 30 327 0 10 1966 32 20311 7281 4.3 30 7 2 9 25% 13326 94418 19853 65%
c -  5.55 30 332 0 11 2199 31 23473 8860 4.3 31 7 2 8 25% 13431 94409 19853 65%
c s  5.82 30 328 0 11 2341 31 25017 10104 4.4 31 7 2 8 25% 13507 92736 19853 65%
c e  5.90 30 328 0 11 2341 31 25017 10104 4.4 31 7 2 8 25% 10825 96467 18398 60%
c s  5.90 30 328 0 11 2341 31 25017 10104 4.4 31 7 2 8 25% 10850 96021 18398 60%
c e  5.91 30 328 0 11 2341 31 25017 10104 4.4 31 7 2 8 25% 10842 96032 18395 60%
c ^  5.91 30 328 0 11 2341 31 25017 10104 4.4 31 7 2 8 25% 10842 96032 18395 60%
c -  6.10 30 326 0 12 2432 31 26789 9347 4.3 31 7 2 8 25% 10912 96032 18395 60%
c c  6.15 30 329 0 12 2432 31 26921 9462 4.3 30 7 2 8 25% 10938 95873 18368 60%
c d  6.15 30 329 0 12 2432 31 26921 9444 4.3 30 7 2 8 25% 10596 95873 18196 59%
c u  6.18 30 329 0 12 2432 31 26921 8130 4.3 30 7 2 8 25% 10616 95873 18196 59%
c v  6.21 30 329 0 12 2432 31 26921 7156 4.3 30 7 2 8 25% 10616 95873 18196 59%
c w  6.22 30 329 0 12 2432 31 26921 7155 4.3 30 7 2 8 25% 10616 95873 18196 59%
c x  6.28 30 329 0 12 2432 31 26921 7154 4.3 30 7 2 8 25% 10685 94211 18196 59%
c =  6.46 30 329 0 12 2432 31 26921 7154 4.3 30 7 2 8 25% 13997 94211 16540 54%
c d  6.47 30 329 0 12 2432 31 26921 6872 4.3 30 7 2 8 25% 10564 94211 16539 54%
c t  6.48 30 329 0 12 2432 31 26921 6872 4.3 30 7 2 8 25% 10484 94211 16539 54%
c f  6.53 30 329 0 12 2432 31 26921 6872 4.3 30 7 2 8 25% 10483 94126 16558 54%
c u  6.56 30 329 0 12 2432 31 26921 6394 4.3 30 7 2 8 25% 10487 94126 16558 54%
c v  6.58 30 329 0 12 2432 31 26921 6263 4.3 30 7 2 8 25% 10487 94126 16558 54%
c
c  seconds   switched     rate        size/glue tier1    binary          remaining
c         MB   reductions   conflicts       size  tier2      irredundant
c           level   restarts     redundant    glue   trail          variables
c
c w  6.59 30 329 0 12 2432 31 26921 6260 4.3 30 7 2 8 25% 10487 94126 16558 54%
c x  6.66 30 329 0 12 2432 31 26921 6258 4.3 30 7 2 8 25% 10498 87320 16558 54%
c =  6.85 30 329 0 12 2432 31 26921 6258 4.3 30 7 2 8 25% 13618 87316 14998 49%
c d  6.85 30 329 0 12 2432 31 26921 6159 4.3 30 7 2 8 25% 10438 87316 14998 49%
c t  6.87 30 329 0 12 2432 31 26921 6159 4.3 30 7 2 8 25% 10332 87316 14998 49%
c f  6.90 30 329 0 12 2432 31 26921 6159 4.3 30 7 2 8 25% 10348 87244 15015 49%
c -  7.15 30 325 0 13 2598 29 30255 8155 4.2 29 7 2 7 24% 10450 87241 15015 49%
c -  7.56 30 308 0 14 2822 28 33861 10232 4.0 28 7 2 7 24% 10514 87240 15015 49%
c -  7.76 30 290 0 15 2958 26 37604 11909 3.9 27 7 2 6 23% 10585 87237 15015 49%
c o  7.93 30 290 0 15 3065 26 40396 14255 3.9 26 7 2 6 22% 10648 87234 15015 49%
c c  8.13 30 287 0 15 3182 26 41248 15045 3.8 26 7 2 6 23% 10729 86703 14919 49%
c d  8.13 30 287 0 15 3182 26 41248 14759 3.8 26 7 2 6 23% 10537 86703 14919 49%
c u  8.17 30 287 0 15 3182 26 41248 12412 3.8 26 7 2 6 23% 10556 86703 14919 49%
c v  8.20 30 287 0 15 3182 26 41248 11976 3.8 26 7 2 6 23% 10556 86703 14919 49%
c w  8.22 30 287 0 15 3182 26 41248 11960 3.8 26 7 2 6 23% 10556 86703 14919 49%
c x  8.25 30 287 0 15 3182 26 41248 11960 3.8 26 7 2 6 23% 10567 80815 14919 49%
c =  8.37 30 287 0 15 3182 26 41248 11960 3.8 26 7 2 6 23% 10959 80815 14723 48%
c d  8.38 30 287 0 15 3182 26 41248 11920 3.8 26 7 2 6 23% 10553 80815 14717 48%
c t  8.39 30 287 0 15 3182 26 41248 11920 3.8 26 7 2 6 23% 10502 80815 14717 48%
c f  8.40 30 287 0 15 3182 26 41248 11920 3.8 26 7 2 6 23% 10500 80743 14736 48%
c
c  seconds   switched     rate         size/glue tier1    binary          remaining
c         MB   reductions   conflicts        size  tier2      irredundant
c           level   restarts      redundant    glue   trail          variables
c
c c  8.44 30 287 0 15 3182 26 41248 11891 3.8 26 7 2 6 23% 10507 80711 14732 48%
c d  8.44 30 287 0 15 3182 26 41248 11891 3.8 26 7 2 6 23% 10499 80711 14732 48%
c u  8.48 30 287 0 15 3182 26 41248 11352 3.8 26 7 2 6 23% 10510 80711 14732 48%
c v  8.51 30 287 0 15 3182 26 41248 10582 3.8 26 7 2 6 23% 10513 80711 14732 48%
c w  8.53 30 287 0 15 3182 26 41248 10582 3.8 26 7 2 6 23% 10513 80711 14732 48%
c x  8.57 30 287 0 15 3182 26 41248 10582 3.8 26 7 2 6 23% 10517 77307 14732 48%
c =  8.68 30 287 0 15 3182 26 41248 10582 3.8 26 7 2 6 23% 10525 77307 14728 48%
c d  8.69 30 287 0 15 3182 26 41248 10574 3.8 26 7 2 6 23% 10509 77307 14724 48%
c t  8.70 30 287 0 15 3182 26 41248 10574 3.8 26 7 2 6 23% 10502 77307 14724 48%
c -  8.74 30 286 0 16 3207 26 41478 9466 3.8 26 7 2 6 23% 10504 77307 14724 48%
c -  9.05 30 278 0 17 3444 25 45480 11484 3.8 26 7 2 6 22% 10549 77305 14724 48%
c -  9.38 30 270 0 18 3699 25 49603 13360 3.7 25 7 2 6 22% 10646 77297 14724 48%
c s  9.59 30 262 0 18 3859 24 52121 15509 3.6 24 7 2 6 22% 10677 71093 14724 48%
c e  9.65 30 262 0 18 3859 24 52121 15509 3.6 24 7 2 6 22% 9763 72450 14277 47%
c 2  9.65 30 262 0 18 3859 24 52121 15509 3.6 24 7 2 6 22% 9760 72450 14277 47%
c s  9.66 30 262 0 18 3859 24 52121 15509 3.6 24 7 2 6 22% 9779 72225 14277 47%
c e  9.66 30 262 0 18 3859 24 52121 15509 3.6 24 7 2 6 22% 9763 72245 14270 47%
c ^  9.66 30 262 0 18 3859 24 52121 15509 3.6 24 7 2 6 22% 9763 72245 14270 47%
c - 10.03 30 261 0 19 4179 25 53845 12370 3.7 25 7 1 6 22% 9781 72242 14270 47%
c - 10.50 30 254 0 20 4575 25 58203 13292 3.6 25 7 1 6 22% 9862 72237 14270 47%
c
c  seconds   switched     rate         size/glue tier1    binary         remaining
c         MB   reductions   conflicts        size  tier2     irredundant
c           level   restarts      redundant    glue   trail         variables
c
c d 10.62 30 253 0 20 4658 25 58884 13875 3.6 25 7 1 6 23% 9823 72237 14247 46%
c u 10.65 30 253 0 20 4658 25 58884 12355 3.6 25 7 1 6 23% 9856 72237 14247 46%
c v 10.69 30 253 0 20 4658 25 58884 10307 3.6 25 7 1 6 23% 9878 72237 14247 46%
c w 10.74 30 253 0 20 4658 25 58884 10275 3.6 25 7 1 6 23% 9878 72237 14247 46%
c x 10.79 30 253 0 20 4658 25 58884 10274 3.6 25 7 1 6 23% 9897 71606 14247 46%
c = 10.97 30 253 0 20 4658 25 58884 10274 3.6 25 7 1 6 23% 9901 71606 14245 46%
c d 10.97 30 253 0 20 4658 25 58884 10247 3.6 25 7 1 6 23% 9861 71606 14227 46%
c t 10.98 30 253 0 20 4658 25 58884 10247 3.6 25 7 1 6 23% 9833 71606 14227 46%
c f 11.00 30 253 0 20 4658 25 58884 10247 3.6 25 7 1 6 23% 9843 71556 14234 46%
c c 11.04 30 253 0 20 4658 25 58884 10202 3.6 25 7 1 6 23% 9909 71319 14200 46%
c d 11.04 30 253 0 20 4658 25 58884 10202 3.6 25 7 1 6 23% 9841 71319 14200 46%
c u 11.06 30 253 0 20 4658 25 58884 9874 3.6 25 7 1 6 23% 9843 71319 14200 46%
c v 11.09 30 253 0 20 4658 25 58884 9502 3.6 25 7 1 6 23% 9852 71319 14200 46%
c w 11.13 30 253 0 20 4658 25 58884 9475 3.6 25 7 1 6 23% 9852 71319 14200 46%
c x 11.21 30 253 0 20 4658 25 58884 9468 3.6 25 7 1 6 23% 9883 70748 14200 46%
c = 11.40 30 253 0 20 4658 25 58884 9468 3.6 25 7 1 6 23% 9929 70748 14177 46%
c d 11.41 30 253 0 20 4658 25 58884 9443 3.6 25 7 1 6 23% 9858 70748 14172 46%
c t 11.42 30 253 0 20 4658 25 58884 9443 3.6 25 7 1 6 23% 9843 70748 14172 46%
c - 11.72 30 252 0 21 4885 25 62677 10507 3.6 25 7 1 6 23% 9893 70748 14172 46%
c - 12.17 30 251 0 22 5245 24 67261 12229 3.5 24 7 1 6 22% 9981 70747 14172 46%
c
c  seconds   switched     rate         size/glue tier1    binary          remaining
c         MB   reductions   conflicts        size  tier2      irredundant
c           level   restarts      redundant    glue   trail          variables
c
c o 12.57 30 247 0 22 5595 25 70396 14969 3.5 24 7 1 6 23% 10041 70747 14172 46%
c - 12.76 30 242 0 23 5727 25 71951 13743 3.5 24 7 1 6 22% 10048 70746 14172 46%
c - 13.30 30 238 0 24 6173 24 76746 15151 3.5 25 7 1 5 22% 10152 70743 14172 46%
c c 13.73 30 235 0 24 6482 24 79969 18042 3.5 25 7 1 5 22% 10293 69851 13999 46%
c d 13.74 30 235 0 24 6482 24 79969 17415 3.5 25 7 1 5 22% 9947 69851 13999 46%
c u 13.77 30 235 0 24 6482 24 79969 15580 3.5 25 7 1 5 22% 9978 69851 13999 46%
c v 13.85 30 235 0 24 6482 24 79969 13376 3.5 25 7 1 5 22% 10006 69851 13999 46%
c w 13.97 30 235 0 24 6482 24 79969 13365 3.5 25 7 1 5 22% 10006 69851 13999 46%
c x 14.05 30 235 0 24 6482 24 79969 13363 3.5 25 7 1 5 22% 10020 69729 13999 46%
c = 14.23 30 235 0 24 6482 24 79969 13363 3.5 25 7 1 5 22% 10466 69729 13776 45%
c d 14.24 30 235 0 24 6482 24 79969 12951 3.5 25 7 1 5 22% 9906 69729 13759 45%
c t 14.25 30 235 0 24 6482 24 79969 12951 3.5 25 7 1 5 22% 9846 69729 13759 45%
c f 14.26 30 235 0 24 6482 24 79969 12951 3.5 25 7 1 5 22% 9863 69624 13773 45%
c c 14.29 30 235 0 24 6482 24 79969 12909 3.5 25 7 1 5 22% 9885 69540 13762 45%
c d 14.30 30 235 0 24 6482 24 79969 12909 3.5 25 7 1 5 22% 9863 69540 13762 45%
c u 14.33 30 235 0 24 6482 24 79969 12398 3.5 25 7 1 5 22% 9871 69540 13762 45%
c v 14.36 30 235 0 24 6482 24 79969 11885 3.5 25 7 1 5 22% 9877 69540 13762 45%
c w 14.52 30 235 0 24 6482 24 79969 11365 3.5 25 7 1 5 22% 9877 69540 13762 45%
c = 14.79 30 235 0 24 6482 24 79969 11365 3.5 25 7 1 5 22% 10569 69522 13415 44%
c d 14.80 30 235 0 24 6482 24 79969 11106 3.5 25 7 1 5 22% 9800 69522 13415 44%
c
c  seconds   switched     rate         size/glue tier1    binary         remaining
c         MB   reductions   conflicts        size  tier2     irredundant
c           level   restarts      redundant    glue   trail         variables
c
c t 14.81 30 235 0 24 6482 24 79969 11106 3.5 25 7 1 5 22% 9730 69522 13415 44%
c f 14.82 30 235 0 24 6482 24 79969 11106 3.5 25 7 1 5 22% 9753 69420 13428 44%
c - 15.04 30 236 0 25 6647 25 81644 10717 3.5 25 7 1 5 23% 9767 69419 13428 44%
c - 15.51 30 226 0 26 7005 24 86647 12873 3.5 25 7 1 6 22% 9788 69417 13428 44%
c - 16.09 30 220 0 27 7482 24 91747 15028 3.5 25 7 1 5 23% 9820 69415 13428 44%
c s 16.62 30 215 0 27 7932 24 95829 18769 3.5 25 7 1 5 23% 9832 66552 13428 44%
c e 16.70 30 215 0 27 7932 24 95829 18769 3.5 25 7 1 5 23% 6436 74738 11748 38%
c 2 16.70 30 215 0 27 7932 24 95829 18769 3.5 25 7 1 5 23% 6433 74738 11748 38%
c s 16.72 30 215 0 27 7932 24 95829 18769 3.5 25 7 1 5 23% 6449 74209 11748 38%
c e 16.73 30 215 0 27 7932 24 95829 18769 3.5 25 7 1 5 23% 6407 74409 11681 38%
c ^ 16.73 30 215 0 27 7932 24 95829 18769 3.5 25 7 1 5 23% 6407 74409 11681 38%
c - 16.84 30 216 0 28 8007 24 96943 12252 3.4 25 7 1 5 23% 6408 74409 11681 38%
c - 17.55 30 214 0 29 8628 24 102235 14424 3.4 25 7 1 5 23% 6433 74403 11681 38%
c d 17.96 30 211 0 29 9000 24 104615 16659 3.4 25 7 1 5 23% 6429 74403 11676 38%
c u 17.99 30 211 0 29 9000 24 104615 15106 3.4 25 7 1 5 23% 6447 74403 11676 38%
c v 18.05 30 211 0 29 9000 24 104615 12913 3.4 25 7 1 5 23% 6451 74403 11676 38%
c w 18.17 30 211 0 29 9000 24 104615 12886 3.4 25 7 1 5 23% 6451 74403 11676 38%
c x 18.23 30 211 0 29 9000 24 104615 12884 3.4 25 7 1 5 23% 6455 74294 11676 38%
c = 18.58 30 211 0 29 9000 24 104615 12884 3.4 25 7 1 5 23% 6665 74294 11571 38%
c d 18.59 30 211 0 29 9000 24 104615 12415 3.4 25 7 1 5 23% 6427 74294 11571 38%
c
c  seconds   switched     rate          size/glue tier1    binary         remaining
c         MB   reductions   conflicts         size  tier2     irredundant
c           level   restarts       redundant    glue   trail         variables
c
c t 18.60 30 211 0 29 9000 24 104615 12415 3.4 25 7 1 5 23% 6400 74294 11571 38%
c f 18.65 30 211 0 29 9000 24 104615 12415 3.4 25 7 1 5 23% 6443 74004 11596 38%
c u 18.70 30 211 0 29 9000 24 104615 11992 3.4 25 7 1 5 23% 6452 74004 11582 38%
c v 18.73 30 211 0 29 9000 24 104615 11526 3.4 25 7 1 5 23% 6453 74004 11582 38%
c w 18.92 30 211 0 29 9000 24 104615 11146 3.4 25 7 1 5 23% 6453 74004 11582 38%
c t 19.30 30 211 0 29 9000 24 104615 11146 3.4 25 7 1 5 23% 6452 74004 11582 38%
c - 19.68 30 208 0 30 9303 24 107621 11865 3.4 25 7 1 5 24% 6431 74004 11582 38%
c o 19.94 30 206 0 30 9530 24 110414 14362 3.4 25 7 1 5 24% 6437 74002 11582 38%
c - 20.37 30 205 0 31 9885 24 113098 14397 3.4 25 7 1 5 24% 6444 73998 11582 38%
c - 21.09 30 200 0 32 10383 23 118666 16480 3.3 25 8 1 5 24% 6456 73998 11582 38%
c - 21.88 30 195 0 33 10943 23 124322 18128 3.3 26 8 1 5 25% 6480 73998 11582 38%
c i 22.35 30 190 0 33 11246 23 128790 22255 3.3 25 8 1 5 25% 6498 73996 11580 38%
c i 22.39 30 189 0 33 11277 23 129250 22630 3.3 25 8 1 5 25% 6512 73996 11579 38%
c - 22.57 30 188 0 34 11394 23 130067 19219 3.3 25 8 1 5 25% 6508 73996 11579 38%
c i 22.77 30 187 0 34 11531 23 131711 20746 3.3 25 8 1 5 25% 6522 73993 11577 38%
c d 22.95 30 186 0 34 11638 22 132887 21758 3.2 25 8 1 5 25% 6528 73951 11565 38%
c d 22.95 30 186 0 34 11638 22 132887 21744 3.2 25 8 1 5 25% 6508 73951 11555 38%
c u 22.99 30 186 0 34 11638 22 132887 19555 3.2 25 8 1 5 25% 6549 73951 11552 38%
c v 23.06 30 186 0 34 11638 22 132887 16208 3.2 25 8 1 5 25% 6587 73951 11550 38%
c w 23.24 30 186 0 34 11638 22 132887 15772 3.2 25 8 1 5 25% 6569 73951 11550 38%
c
c  seconds   switched      rate          size/glue tier1    binary         remaining
c         MB   reductions    conflicts         size  tier2     irredundant
c           level   restarts        redundant    glue   trail         variables
c
c d 23.24 30 186 0 34 11638 22 132887 15724 3.2 25 8 1 5 25% 6569 73907 11543 38%
c d 23.24 30 186 0 34 11638 22 132887 15722 3.2 25 8 1 5 25% 6553 73907 11537 38%
c t 23.25 30 186 0 34 11638 22 132887 15722 3.2 25 8 1 5 25% 6506 73907 11537 38%
c u 23.29 30 186 0 34 11638 22 132887 15097 3.2 25 8 1 5 25% 6518 73907 11537 38%
c v 23.34 30 186 0 34 11638 22 132887 14363 3.2 25 8 1 5 25% 6524 73907 11537 38%
c w 23.47 30 186 0 34 11638 22 132887 14236 3.2 25 8 1 5 25% 6524 73907 11537 38%
c x 23.55 30 186 0 34 11638 22 132887 14210 3.2 25 8 1 5 25% 6548 72173 11537 38%
c t 23.99 30 186 0 34 11638 22 132887 14210 3.2 25 8 1 5 25% 6531 72173 11537 38%
c i 24.00 30 186 0 34 11638 22 132887 14210 3.2 25 8 1 5 25% 6531 72173 11537 38%
c i 24.24 30 183 0 34 11792 22 135233 16312 3.2 25 8 1 5 25% 6554 72171 11535 38%
c - 24.32 30 183 0 35 11850 22 135898 14054 3.2 25 8 1 5 25% 6529 72171 11535 38%
c i 24.44 30 182 0 35 11973 22 136678 14783 3.2 25 8 1 5 26% 6535 72171 11534 38%
c i 24.82 30 179 0 35 12250 22 140012 17841 3.2 25 8 1 5 26% 6554 72171 11533 38%
c i 24.90 30 178 0 35 12299 22 140773 18555 3.2 25 8 1 5 26% 6556 72171 11532 38%
c - 25.01 30 176 0 36 12378 22 141814 16253 3.1 25 8 1 5 26% 6553 72171 11532 38%
c i 25.07 30 176 0 36 12422 22 142202 16589 3.1 25 8 1 5 26% 6560 72171 11529 38%
c i 25.09 30 176 0 36 12436 21 142644 16972 3.1 25 8 1 5 26% 6570 72171 11528 38%
c i 25.15 30 175 0 36 12476 21 143270 17551 3.1 25 8 1 5 26% 6572 72171 11522 38%
c i 25.15 30 175 0 36 12476 21 143324 17588 3.1 25 8 1 5 26% 6574 72171 11521 38%
c i 25.18 30 174 0 36 12496 21 143729 17962 3.1 25 8 1 5 26% 6580 72171 11499 38%
c
c  seconds   switched      rate          size/glue tier1    binary         remaining
c         MB   reductions    conflicts         size  tier2     irredundant
c           level   restarts        redundant    glue   trail         variables
c
c i 25.18 30 174 0 36 12498 21 143842 18045 3.1 25 8 1 5 26% 6585 72171 11473 37%
c } 25.18 30 174 0 36 12498 21 143844 18045 3.1 25 8 1 5 26% 6585 72171 11442 37%
c 0 25.18 30 174 0 36 12498 21 143844 18045 3.1 25 8 1 5 26% 6585 72171 11442 37%
c
c ---- [ result ] ------------------------------------------------------------
c
s UNSATISFIABLE
c
c ---- [ profiling ] ---------------------------------------------------------
c
c          17.11   67.96 %  search
c          17.11   67.96 %  focused
c           7.72   30.65 %  simplify
c           7.47   29.67 %  probe
c           3.16   12.56 %  sweep
c           2.90   11.53 %  vivify
c           0.48    1.89 %  factor
c           0.43    1.70 %  eliminate
c           0.42    1.68 %  congruence
c           0.37    1.46 %  substitute
c           0.30    1.20 %  preprocess
c           0.14    0.57 %  reduce
c           0.12    0.47 %  fastel
c           0.10    0.39 %  transitive
c           0.08    0.32 %  subsume
c           0.04    0.15 %  backbone
c           0.02    0.10 %  lucky
c           0.02    0.09 %  parse
c =============================================
c          25.18  100.00 %  total
c
c ---- [ statistics ] --------------------------------------------------------
c
c chronological:                         5531                4 %  conflicts
c conflicts:                           143844             5711.73 per second
c congruent:                             3863               13 %  variables
c decisions:                          3094761               21.51 per conflict
c eliminated:                           13369               44 %  variables
c factored:                              4820               16 %  variables
c fast_eliminated:                       9045               68 %  eliminated
c fast_strengthened:                       17                1 %  per strengthened
c fast_subsumed:                           74                0 %  per subsumed
c iterations:                              14                0 %  variables
c propagations:                     123598307          4907814    per second
c reductions:                              36             3996    interval
c reordered:                                5            28769    interval
c restarts:                             12498               12    interval
c strengthened:                          1383                0 %  checks
c substituted:                          10528               34 %  variables
c subsumed:                             19165                1 %  checks
c switched:                                 0                0    interval
c vivified:                             68434               13 %  checks
c
c ---- [ glue usage ] --------------------------------------------------------
c
c focused glue 1 used 218029 clauses 57.54% accumulated 57.54% tier1
c focused glue 2 used  74730 clauses 19.72% accumulated 77.26%
c focused glue 3 used  24140 clauses  6.37% accumulated 83.63%
c focused glue 4 used  14917 clauses  3.94% accumulated 87.57%
c focused glue 5 used  10548 clauses  2.78% accumulated 90.35% tier2
c
c ---- [ resources ] ---------------------------------------------------------
c
c maximum-resident-set-size:         31346688 bytes         30 MB
c process-time:                            25s              25.18 seconds
c
c ---- [ shutting down ] -----------------------------------------------------
c
c exit 20
